s td 122 71 320
b 1 1 4 5 8 16 20 22 23 25 35 38 44 50 57 60 70 78 83 84 88 91 92 95 99 102 107 110 122 124 143 144 145 151 154 179 180 184 185 190 191 195 199 207 212 215 218 232 237 238 240 243 247 248 249 265 278 279 291 293 294 298 301 307
b 2 4 5 8 16 20 22 23 25 35 38 44 50 57 60 70 78 83 84 88 91 92 95 99 102 107 110 122 124 143 144 145 151 154 166 179 180 184 185 190 191 195 199 207 212 215 218 232 237 238 240 243 247 248 249 265 278 279 291 293 294 298 301 307
b 3 4 5 8 16 20 22 23 25 35 38 44 50 57 60 70 78 83 84 88 91 92 95 99 102 107 110 122 124 143 144 145 151 154 166 179 180 184 185 190 191 195 199 207 212 215 218 232 237 238 240 243 247 248 249 265 278 279 291 293 294 298 301 317
b 4 4 5 8 16 20 22 23 25 35 38 44 50 57 60 70 78 83 84 88 92 95 99 102 107 110 122 124 136 143 144 145 151 154 163 166 179 180 184 185 190 191 195 199 207 212 215 218 232 237 238 240 243 247 248 249 265 278 279 291 293 294 298 301 317
b 5 4 5 8 16 20 22 23 25 35 38 44 50 57 60 70 78 83 84 88 92 95 99 102 107 110 122 124 136 143 144 145 151 154 163 164 166 179 180 184 190 191 195 199 207 212 215 218 232 237 238 240 243 247 248 249 265 278 279 291 293 294 298 301 317
b 6 4 5 8 16 20 22 23 25 35 38 44 50 57 60 70 78 83 84 88 92 95 102 107 110 122 124 136 143 144 145 151 154 163 164 166 179 180 181 184 190 191 195 199 207 212 215 218 237 238 240 243 247 248 249 265 278 279 291 294 298 301 316 317
b 7 4 5 8 16 20 22 23 25 35 44 50 57 60 70 78 83 84 88 92 95 102 107 110 112 117 122 124 136 143 144 145 151 154 163 164 166 179 180 181 184 190 191 195 199 207 212 215 218 237 238 240 243 247 248 249 265 278 279 291 294 298 301 316 317
b 8 4 5 8 16 20 22 23 25 35 44 50 57 60 70 78 83 84 88 92 95 102 107 110 112 117 122 124 136 143 144 145 151 154 163 164 166 168 179 180 181 184 190 191 195 199 207 212 215 218 237 238 240 243 247 248 249 265 279 291 294 298 301 316 317
b 9 4 5 8 16 20 22 23 25 35 44 50 57 60 65 70 83 84 88 92 95 102 107 110 112 117 122 124 136 143 144 145 151 154 163 164 166 168 179 180 181 184 190 191 195 199 212 215 218 237 238 240 243 247 248 249 265 269 279 291 294 298 301 316 317
b 10 4 5 8 16 22 23 25 35 44 50 57 60 65 70 83 84 88 92 95 102 107 110 112 117 122 124 136 143 144 145 151 154 163 164 166 168 179 180 181 184 190 191 195 199 212 215 218 237 238 240 243 247 248 249 265 269 279 284 291 294 298 316 317
b 11 4 5 8 16 22 23 25 35 44 50 57 60 65 70 83 84 88 92 95 102 107 110 112 117 122 124 136 143 144 145 151 154 163 164 166 168 179 181 183 184 190 191 195 199 212 215 218 237 238 240 243 247 248 249 265 269 279 284 291 294 298 316 317
b 12 4 5 8 16 23 35 44 60 65 70 75 79 83 88 92 95 102 107 110 112 117 122 124 136 144 145 151 163 164 166 168 179 181 183 184 190 191 212 215 237 240 247 248 269 284 291 294 316 317
b 13 2 4 5 8 16 23 35 44 60 65 70 75 79 83 88 92 95 102 107 110 112 117 122 124 136 144 151 163 164 166 168 179 181 183 184 190 191 212 215 237 240 247 248 269 284 291 294 316 317
b 14 2 4 5 8 16 23 35 44 60 65 75 79 83 88 92 95 102 107 110 112 117 122 124 136 144 151 163 164 166 168 173 179 181 183 184 190 191 212 237 240 247 248 269 284 291 294 316 317
b 15 2 4 5 8 16 23 35 44 60 65 75 79 83 88 92 95 102 110 112 117 122 124 136 144 151 163 164 166 168 173 177 179 181 183 184 190 191 212 237 240 247 269 284 291 294 316 317
b 16 4 65 83 88 92 102 112 117 124 166 168 173 177 181 183 190 191 224 229 237 269 282 284 291 294 316 317
b 17 65 83 88 92 102 112 117 124 166 168 173 177 181 183 190 191 224 229 237 269 282 284 291 294 311 317
b 18 4 5 8 16 22 23 25 46 50 57 60 65 84 88 95 110 112 117 122 143 151 154 168 179 181 183 190 191 195 199 212 218 237 238 240 243 247 249 265 279 284 291 298 317
b 19 4 5 8 16 22 23 25 46 50 57 60 65 84 88 95 110 112 117 122 143 151 154 168 179 181 183 190 191 195 199 212 218 237 240 243 247 249 254 265 272 279 284 291 298 317
b 20 4 5 8 16 22 23 25 28 46 60 65 84 95 110 112 117 122 154 168 181 183 195 199 212 218 247 249 254 265 272 279 284 298 317
b 21 4 5 8 16 22 23 25 28 39 46 60 65 84 95 110 112 117 122 154 168 181 183 195 199 212 218 247 249 254 265 272 284 298 317
b 22 4 5 8 16 22 23 25 28 39 46 60 65 84 95 110 112 117 122 154 168 181 183 195 199 212 247 254 265 272 284 289 298 317
b 23 1 4 5 8 10 16 20 22 23 25 35 38 44 50 57 60 70 78 83 84 88 89 91 92 95 99 102 107 110 119 122 124 131 143 144 145 151 154 155 162 174 179 180 184 185 190 191 195 199 207 212 215 218 232 237 238 240 243 247 248 249 265 274 278 279 291 293 294 301 306 307
b 24 1 4 5 8 10 16 20 22 23 25 35 38 50 57 60 70 78 83 84 88 89 91 92 95 99 102 107 110 119 122 124 131 143 144 145 151 154 155 162 174 179 180 184 185 190 191 195 199 207 212 215 218 232 237 238 239 240 243 247 248 249 265 274 278 279 291 293 294 301 306 307
b 25 1 4 5 8 10 16 20 22 23 25 35 38 50 57 60 70 78 83 84 88 89 91 92 95 99 102 107 110 119 122 124 131 143 144 145 151 154 155 162 174 179 180 185 190 191 195 199 207 212 218 232 237 238 239 240 243 247 248 249 265 274 278 279 291 293 294 301 302 306 307
b 26 1 4 5 8 10 16 20 22 23 25 35 38 50 57 60 70 78 83 84 88 89 91 92 95 99 102 107 110 119 122 124 131 143 145 151 154 155 162 174 179 180 185 190 191 195 199 207 212 218 232 237 238 239 240 243 247 248 249 265 274 278 279 286 291 293 294 301 302 306 307
b 27 1 4 5 8 10 16 20 22 23 25 35 38 50 57 60 70 78 83 84 88 89 91 92 95 99 102 110 119 122 124 131 143 145 151 154 155 162 174 179 180 185 190 191 195 199 207 212 218 232 237 238 239 240 243 247 248 249 262 265 274 278 279 286 291 293 294 301 302 306 307
b 28 1 4 5 8 10 11 16 20 22 23 25 35 38 50 57 60 78 83 84 88 89 91 92 95 99 102 110 119 122 124 131 143 151 154 155 162 174 179 180 185 190 191 195 199 207 212 218 232 237 238 239 240 243 247 248 249 262 265 274 278 279 286 291 293 294 301 302 306 307 308
b 29 1 3 4 8 10 11 20 22 23 25 35 38 50 57 60 78 83 84 88 89 91 92 99 102 110 119 122 124 131 143 151 154 155 160 162 174 179 180 185 189 190 191 195 199 207 212 218 232 237 238 239 240 243 248 249 262 265 274 278 279 286 291 293 294 301 302 306 307 308
b 30 1 3 4 8 10 11 20 22 23 25 35 38 50 57 60 78 83 84 88 89 91 92 99 102 104 110 119 122 124 131 143 151 154 155 160 162 174 179 180 185 189 190 191 195 199 207 212 232 237 238 239 240 243 248 249 262 265 274 278 279 286 291 293 294 301 302 306 307 308
b 31 1 3 4 8 10 11 20 22 23 25 35 38 50 57 60 78 83 84 88 89 91 92 99 102 104 110 119 122 124 131 143 151 154 155 160 162 174 179 180 185 189 190 191 199 207 212 232 237 238 239 240 243 248 249 258 262 265 274 278 279 286 291 293 294 301 302 306 307 308
b 32 1 3 4 8 10 11 20 23 25 35 38 50 57 60 78 83 84 88 89 91 92 99 102 104 110 119 122 124 131 143 151 154 155 160 162 174 179 180 185 189 190 191 199 207 212 232 237 238 239 240 243 246 248 249 258 262 265 274 278 279 286 291 293 294 301 302 306 307 308
b 33 1 3 4 8 10 11 20 25 35 38 50 57 61 78 83 84 88 89 91 92 99 102 104 110 119 124 131 143 151 154 155 160 162 174 179 180 185 189 190 191 199 207 212 232 237 238 239 240 243 246 248 249 258 262 265 274 278 279 286 291 293 294 301 302 306 307 308
b 34 1 3 4 9 10 11 20 25 35 38 50 57 61 78 83 84 88 89 91 92 99 102 104 110 119 123 124 131 143 151 154 155 160 162 174 179 180 185 189 190 191 199 203 207 212 230 232 237 238 239 240 243 246 248 249 258 262 265 274 278 279 286 291 293 294 301 302 304 306 307 308
b 35 1 3 4 9 10 11 20 25 35 38 50 57 61 78 84 88 89 91 99 104 110 119 121 123 131 143 151 154 155 160 162 174 179 180 185 189 190 191 199 203 207 212 223 230 232 237 238 239 240 243 246 248 249 258 262 265 270 274 278 279 286 291 293 294 296 301 302 304 306 307 308
b 36 1 3 4 9 10 11 20 25 35 38 50 57 61 78 84 88 89 91 99 104 118 119 121 123 131 143 151 154 155 160 162 174 179 180 185 189 190 191 199 203 212 223 230 232 237 238 239 240 243 246 248 249 258 262 265 270 274 279 286 291 293 294 296 301 302 304 306 307 308
b 37 1 3 4 9 10 11 20 25 35 38 50 57 61 78 84 88 89 91 99 104 118 119 121 123 131 143 151 154 155 160 162 174 179 180 185 189 190 191 199 203 223 230 232 237 238 239 240 243 246 248 249 258 262 265 270 274 279 286 290 291 293 294 296 301 302 304 306 307 308
b 38 1 3 4 9 10 11 20 25 38 50 57 61 78 84 88 89 90 91 99 104 118 119 121 123 131 143 151 154 155 160 162 174 179 180 185 189 190 191 199 203 223 230 232 237 238 239 240 243 246 248 249 258 262 265 270 274 279 286 290 291 293 294 296 301 302 304 306 307 308
b 39 1 3 4 9 10 11 20 25 33 38 50 57 61 78 84 88 89 90 91 99 104 118 119 121 123 131 143 151 154 155 160 162 174 179 180 189 190 191 199 203 223 230 232 237 238 239 240 243 246 248 249 256 258 265 270 274 279 286 290 291 293 294 296 301 302 304 306 307 308
b 40 1 3 4 9 10 11 20 25 33 38 50 57 61 84 88 89 90 91 99 104 118 119 121 123 131 138 143 151 154 155 159 160 162 174 179 189 190 191 199 203 223 230 232 237 238 239 240 243 246 248 249 256 258 265 270 274 279 286 290 291 293 294 296 301 302 304 306 307 308
b 41 3 9 11 33 61 88 90 99 104 121 123 138 152 159 160 189 190 191 203 230 232 237 238 256 258 270 291 293 296 304 308
b 42 3 9 33 45 61 88 90 104 108 121 123 138 152 160 189 190 191 203 230 237 256 258 270 291 293 296 304
b 43 3 9 33 45 61 90 104 108 121 123 138 152 160 189 203 230 234 251 256 258 270 293 296 300 304
b 44 3 9 15 33 61 90 104 108 121 123 138 152 160 189 203 230 234 251 256 258 270 293 296 300 304
b 45 1 3 4 9 10 11 20 25 33 38 50 57 84 88 89 90 91 99 104 115 118 119 121 123 131 138 143 151 154 155 159 160 162 174 179 189 190 191 199 203 223 230 232 237 238 239 240 243 246 248 249 256 258 265 270 274 279 286 290 291 293 294 296 301 302 304 306 307 308
b 46 1 3 4 9 10 11 20 25 38 50 57 84 88 89 91 99 104 115 118 119 121 123 131 138 143 147 151 154 155 156 159 160 162 174 179 189 190 191 199 203 223 230 232 237 238 239 240 243 246 248 249 258 265 270 274 279 286 290 291 293 294 296 301 302 304 306 307 308
b 47 1 3 4 9 10 11 20 25 38 50 57 84 88 89 91 99 104 111 115 118 119 121 123 131 138 143 147 151 154 155 156 160 162 174 179 189 190 191 199 203 223 230 232 237 238 239 240 243 246 248 249 258 265 270 274 279 286 290 291 293 294 296 301 302 304 306 307 308
b 48 1 3 4 9 10 11 20 25 38 50 57 84 88 89 91 99 104 111 118 119 121 123 125 131 138 143 147 151 154 155 156 160 162 174 179 189 190 191 199 203 223 230 237 238 239 240 243 246 248 249 258 265 270 274 279 286 290 291 293 294 296 301 302 304 306 307 308
b 49 1 3 4 9 10 11 20 25 38 50 57 82 84 88 89 91 104 111 118 119 121 123 125 131 138 143 147 151 154 155 156 160 162 174 179 189 190 191 199 203 223 230 237 238 239 240 243 246 248 249 258 265 270 274 279 286 290 291 293 294 296 301 302 304 306 307 308
b 50 1 3 4 9 10 20 25 38 50 57 82 84 88 89 91 104 111 118 119 121 123 125 131 138 143 147 148 151 154 155 156 160 162 174 179 189 190 191 199 203 221 223 230 237 239 240 243 246 248 249 258 265 270 274 279 286 290 291 293 294 296 301 302 304 306 307
b 51 1 3 4 9 10 20 25 38 50 57 82 84 88 89 91 100 104 111 118 119 121 123 125 131 138 143 148 151 154 155 156 160 162 174 179 189 190 191 199 203 221 223 230 237 239 240 243 246 248 249 258 265 270 274 279 286 290 291 293 294 296 301 302 304 306 307
b 52 1 3 4 9 10 20 25 38 50 57 64 82 84 88 89 91 100 104 118 119 121 123 125 131 138 143 148 151 154 155 160 162 174 189 190 191 199 203 210 221 223 230 237 239 243 246 248 249 258 265 270 274 279 286 290 291 293 294 296 301 302 304 306 307
b 53 1 3 9 10 20 25 31 38 50 57 64 82 84 88 89 91 100 104 118 119 121 123 125 131 138 143 148 151 154 155 160 162 174 189 190 191 199 203 210 221 223 230 237 239 243 246 248 249 258 265 270 274 279 286 287 290 291 293 294 296 301 302 304 306 307
b 54 1 3 9 10 20 25 31 38 50 57 64 82 88 89 91 100 104 118 119 121 123 125 128 131 138 143 148 151 154 155 160 162 174 189 190 191 203 210 221 223 230 237 239 243 246 248 258 265 270 274 279 286 287 290 291 293 294 296 301 302 304 306
b 55 1 3 9 10 20 25 31 38 50 57 64 82 88 89 91 100 104 118 119 121 123 125 128 131 138 143 148 151 154 155 160 162 174 189 190 191 203 210 221 223 230 237 239 243 246 248 258 265 270 274 280 286 287 290 291 293 294 296 301 302 304
b 56 1 3 9 10 20 25 31 38 50 57 64 82 88 89 91 100 104 118 119 121 123 125 128 131 133 138 143 148 151 155 160 162 174 189 190 191 203 210 221 223 230 237 239 243 246 248 258 265 270 274 280 286 287 290 291 293 294 296 301 302 304
b 57 1 3 9 10 25 31 50 57 64 82 88 89 98 100 104 118 119 121 123 125 128 131 133 138 143 148 151 155 160 162 174 189 190 191 203 210 221 223 230 237 239 243 246 258 265 270 274 280 286 287 290 291 293 294 296 302 304 320
b 58 3 9 10 25 31 50 57 64 77 82 88 89 98 100 104 118 119 121 123 125 128 131 133 138 143 148 151 155 160 162 174 189 190 191 203 210 221 223 230 237 243 246 258 265 270 274 280 286 287 290 291 293 294 296 302 304 320
b 59 3 9 10 25 31 50 57 64 77 82 88 89 98 100 104 118 119 121 123 125 128 131 133 138 143 148 160 161 162 174 189 190 191 203 210 221 223 230 237 243 246 258 265 270 280 286 287 290 291 293 294 296 302 304 320
b 60 3 9 31 50 64 68 77 82 88 98 100 104 118 119 121 123 125 128 129 133 148 160 161 162 174 189 190 191 203 210 221 223 230 237 243 246 258 270 280 286 287 290 291 293 294 296 302 304 320
b 61 3 9 31 50 64 68 77 82 88 98 100 104 118 119 121 123 125 126 128 129 133 148 160 161 162 174 189 190 191 203 223 230 237 243 246 258 270 280 286 287 290 291 293 294 296 302 304 320
b 62 1 3 9 61 78 84 89 104 110 121 123 131 154 155 157 160 180 189 190 199 203 207 212 223 230 249 258 270 279 286 293 294 296 304
b 63 6 7 12 13 14 19 21 24 29 32 37 41 42 43 46 47 48 51 54 63 80 85 86 87 94 101 105 106 109 134 135 141 149 150 167 186 187 188 198 201 204 205 206 209 217 225 226 238 244 250 252 253 266 267 268 271 273 276 285 295 297 309 313 318 319
b 64 7 12 13 14 19 21 24 29 32 37 41 42 43 46 47 48 51 52 54 55 63 80 85 86 87 94 101 105 106 109 116 127 132 134 135 141 150 158 167 186 187 188 193 198 201 204 205 206 209 213 225 226 238 244 250 252 253 266 267 268 271 273 276 285 295 297 309 313 315 318 319
b 65 7 14 21 24 29 32 36 43 46 47 48 52 54 55 59 85 86 87 101 116 127 132 135 137 141 158 167 187 188 193 198 201 209 213 252 266 267 268 276 295 297 313 315 318 319
b 66 7 14 17 21 24 32 36 43 46 47 52 54 55 59 86 87 132 135 137 158 167 187 188 193 198 201 209 252 268 276 297 313 318 319
b 67 7 14 17 21 24 32 36 43 46 47 52 54 55 59 86 87 93 132 135 137 158 167 187 188 193 201 209 252 268 276 297 313 318 319
b 68 7 14 17 21 24 32 36 43 46 47 52 54 55 59 86 87 93 113 132 135 137 158 167 187 188 193 201 209 252 276 297 313 318 319
b 69 7 14 17 21 32 36 43 46 47 52 54 55 59 86 87 93 113 132 135 137 158 167 170 187 188 201 209 252 276 297 313 318 319
b 70 12 13 14 19 21 24 29 32 37 41 42 43 46 47 48 51 52 54 55 63 80 85 86 87 94 101 105 106 109 116 127 132 134 135 141 150 158 167 186 187 188 193 198 204 205 206 209 213 214 225 226 238 244 250 252 253 266 267 268 271 273 285 295 297 309 313 315 319
b 71 12 13 14 19 21 24 26 29 32 37 41 42 43 46 47 48 51 52 55 63 73 80 85 86 87 94 101 105 106 109 116 127 132 134 135 141 150 158 167 186 187 188 193 198 204 205 206 209 213 214 225 226 238 244 250 252 253 266 267 268 271 273 285 295 297 309 313 315 319
b 72 12 13 14 19 21 24 26 29 37 41 42 43 46 47 48 51 52 55 63 73 80 85 86 87 94 101 105 106 109 116 127 132 134 135 141 150 158 167 186 187 188 193 198 204 205 206 209 213 214 225 226 231 238 244 250 252 253 266 267 268 271 273 285 295 297 309 313 315 319
b 73 12 13 14 19 21 24 26 29 37 41 42 43 47 48 51 52 55 63 73 80 85 86 94 101 105 106 109 116 127 132 134 135 141 150 158 167 172 186 187 188 193 198 202 204 205 206 209 213 214 225 226 231 238 244 250 252 253 266 267 268 271 273 285 295 297 309 313 315 319
b 74 12 13 14 19 21 24 26 29 37 40 41 42 43 47 48 51 52 55 63 73 76 80 85 86 94 101 105 106 109 116 127 132 134 135 141 150 158 167 172 186 187 188 193 198 202 204 205 206 213 214 225 226 231 238 244 250 252 253 266 267 268 271 273 285 295 297 299 309 313 315
b 75 12 13 14 19 21 24 26 29 37 40 41 42 43 47 48 51 52 55 63 73 76 80 85 86 94 101 105 106 109 116 127 132 134 135 141 150 158 167 172 186 187 188 196 198 202 204 205 206 213 214 225 226 231 238 244 250 252 253 266 267 268 271 273 285 295 297 299 309 313 315
b 76 12 13 14 19 21 24 26 29 37 40 41 42 43 47 48 51 52 55 63 73 76 80 85 86 94 101 105 106 109 116 127 130 132 134 135 141 150 167 172 186 187 188 196 198 202 204 205 206 213 214 225 226 231 238 244 250 252 253 266 267 268 271 273 285 295 297 299 309 312 313 315
b 77 12 13 14 19 21 24 26 29 37 40 41 42 43 47 48 51 52 55 63 73 76 80 85 86 101 105 106 109 116 127 130 132 134 135 141 150 172 182 186 187 188 196 198 202 204 205 206 213 214 225 226 231 238 244 250 252 253 266 267 268 271 273 285 295 297 299 309 312 313 315
b 78 12 13 14 19 21 24 26 29 37 40 41 42 43 48 51 52 55 63 73 76 81 85 86 101 105 106 109 116 127 130 132 134 135 141 150 172 182 186 187 188 196 198 202 204 205 206 213 214 225 226 231 238 244 250 252 253 266 267 268 271 273 285 295 297 299 309 312 313 315
b 79 12 13 14 19 21 24 26 29 37 40 41 42 43 48 51 52 55 63 73 76 81 85 86 101 105 106 109 116 127 130 132 134 141 150 171 172 175 182 186 187 192 196 198 202 204 205 206 213 214 225 226 227 231 238 244 250 252 253 261 266 267 268 271 273 285 295 297 299 309 312 315
b 80 12 13 14 19 21 24 26 29 37 40 41 43 48 52 55 63 73 76 81 85 86 101 105 106 116 127 130 132 134 140 141 150 171 172 175 182 186 187 192 196 198 202 204 205 206 213 214 226 227 231 238 244 250 252 253 261 266 267 268 271 273 285 295 297 299 309 312 315
b 81 12 13 19 21 24 26 29 37 40 41 43 48 52 55 63 69 73 76 81 85 86 101 105 106 116 127 130 132 134 140 141 150 171 172 175 182 186 187 192 196 198 202 204 205 206 213 214 226 227 231 238 244 250 252 253 261 266 267 268 271 273 285 295 297 299 309 312 315
b 82 12 13 19 21 24 26 29 37 40 41 43 48 55 63 69 73 76 81 85 86 101 103 105 106 114 116 127 130 132 134 140 141 150 171 172 175 182 186 187 192 196 198 202 204 205 206 213 214 226 227 231 238 242 244 250 252 253 261 266 267 268 271 273 277 285 295 297 299 309 312 315
b 83 12 13 19 24 29 37 40 41 43 48 55 63 69 73 76 81 85 86 101 103 105 106 114 116 127 130 132 134 140 141 150 171 172 175 182 186 187 192 196 198 202 204 205 206 213 214 226 227 238 242 244 250 252 253 261 266 267 268 271 273 275 277 285 295 297 299 309 312 315
b 84 12 13 19 24 29 37 40 41 43 48 55 63 69 73 74 76 81 85 86 101 103 105 106 114 116 127 130 132 134 140 141 150 171 172 175 182 186 187 192 196 198 202 204 205 206 213 214 226 227 238 242 244 250 252 253 261 266 267 268 271 273 275 277 295 297 299 309 312 315
b 85 12 13 19 24 29 30 37 40 41 48 55 63 69 73 74 76 81 85 86 101 103 105 106 114 116 127 130 132 134 140 141 150 171 172 175 182 186 187 192 196 198 202 204 205 206 213 214 226 227 238 242 244 250 252 253 261 266 267 268 271 273 275 277 295 297 299 309 312 315
b 86 12 13 19 24 29 30 37 40 41 48 55 56 63 69 73 74 76 81 85 86 101 103 105 106 114 116 127 130 132 134 140 141 171 172 175 182 186 187 192 196 197 198 202 204 205 206 213 214 226 227 238 242 244 250 252 253 261 266 267 268 271 275 277 295 297 299 309 312 315
b 87 12 13 19 24 29 30 37 40 41 48 55 56 63 69 74 76 81 85 86 101 103 105 106 114 116 127 130 132 134 140 141 146 171 172 175 182 186 187 192 196 197 198 202 204 205 206 213 226 227 238 242 244 250 252 253 261 266 267 268 271 275 277 288 295 297 299 309 312 315
b 88 12 13 19 24 29 30 37 40 41 48 55 56 63 69 74 76 81 85 86 101 103 105 106 114 116 127 130 132 134 141 146 171 172 175 182 186 187 192 196 197 198 202 204 205 206 213 226 227 228 238 242 244 250 252 253 261 266 267 268 271 275 277 288 295 297 299 309 312 315
b 89 12 13 19 24 29 30 37 40 41 48 55 63 69 74 76 81 85 86 101 103 105 106 114 116 120 127 130 132 134 141 146 171 172 175 182 186 187 192 196 198 202 204 205 206 213 226 227 228 238 242 244 250 252 253 261 266 267 268 271 277 288 295 297 299 309 312 314 315
b 90 12 13 19 24 29 30 37 40 41 48 55 63 67 69 74 76 81 85 86 101 103 105 106 114 116 120 127 130 132 134 141 171 172 175 182 186 187 192 196 198 202 204 205 206 213 226 227 228 238 242 244 250 252 253 261 266 267 268 271 277 288 295 297 299 309 312 314 315
b 91 12 13 19 24 29 30 37 40 41 48 55 63 67 69 74 76 81 85 86 101 103 105 106 114 116 120 127 130 132 134 139 141 171 172 175 182 186 187 192 196 198 202 204 205 206 213 226 227 238 242 250 252 253 261 266 267 268 271 277 288 295 297 299 309 312 314 315
b 92 12 13 19 24 29 30 37 40 41 48 55 63 67 69 74 76 81 85 86 101 103 105 106 114 116 120 127 130 132 134 139 141 171 172 175 182 186 187 192 196 198 202 204 205 213 226 227 238 242 250 252 253 261 264 266 267 268 271 277 288 295 297 299 309 312 314 315
b 93 12 13 19 24 29 30 37 40 41 48 55 63 67 69 74 76 81 85 86 101 103 105 106 114 116 120 127 130 132 134 139 141 171 175 182 186 187 192 196 198 204 205 213 226 227 236 238 242 245 250 252 253 261 264 266 267 268 277 288 295 297 299 309 312 314 315
b 94 12 13 19 24 29 30 37 40 41 48 55 63 69 74 76 81 85 86 101 103 105 106 114 116 120 127 130 132 134 139 141 169 171 175 182 186 187 192 196 198 204 205 213 226 227 236 238 242 245 250 252 253 261 264 266 267 268 277 288 295 297 299 309 312 314 315
b 95 12 13 19 24 29 30 37 40 41 48 55 63 69 74 76 81 85 86 103 105 106 114 116 127 130 132 134 139 169 171 175 182 186 187 192 196 198 204 205 213 226 227 236 238 242 245 250 252 253 257 261 264 266 267 268 277 283 288 295 297 299 309 312 315
b 96 12 13 19 24 29 30 37 40 41 48 55 63 69 71 74 76 81 85 86 103 105 106 114 116 127 130 132 134 139 153 169 171 175 182 186 192 196 198 204 205 213 226 227 236 238 242 245 250 252 253 257 261 264 266 267 268 277 283 288 295 297 299 309 312 315
b 97 12 13 19 29 30 37 40 48 55 63 69 71 74 76 81 85 86 103 105 106 114 116 127 130 132 134 139 153 169 171 175 182 186 192 196 198 204 205 213 226 227 236 238 242 245 250 253 255 257 261 264 266 267 268 277 283 288 295 299 309 312 315
b 98 12 19 29 30 37 40 48 55 63 69 71 72 74 76 81 85 86 103 105 106 114 116 127 130 132 134 139 153 169 171 175 182 186 192 196 198 204 205 213 226 227 236 238 242 245 250 253 255 257 261 264 266 267 277 283 288 295 299 309 312 315
b 99 12 19 29 30 37 40 48 55 63 69 71 72 74 76 81 85 103 105 106 114 116 127 130 132 134 139 153 169 171 175 182 186 192 196 198 204 205 213 226 227 236 238 242 245 250 253 255 257 261 264 266 267 277 281 283 288 295 299 309 312 315
b 100 12 18 19 29 30 37 40 48 55 62 69 71 72 74 76 81 85 103 114 116 127 130 132 139 153 169 171 175 182 186 192 196 198 204 205 213 226 227 236 238 242 245 250 255 257 261 264 266 267 277 281 283 288 295 299 309 312 315
b 101 18 19 29 30 37 40 48 55 62 69 71 72 74 76 81 85 103 114 116 127 130 132 139 153 169 171 175 182 186 192 196 204 205 213 220 226 227 236 238 242 245 250 255 257 261 264 266 267 277 281 283 288 295 299 309 312 315
b 102 18 19 29 30 37 40 48 55 58 62 69 71 72 74 76 81 85 103 114 116 127 130 132 139 153 169 171 175 182 186 192 196 205 213 220 226 227 236 242 245 250 255 257 261 264 266 267 277 281 283 288 299 309 312 315
b 103 18 29 30 37 40 48 58 62 66 69 71 72 74 76 81 85 103 114 116 130 139 153 169 171 175 176 182 186 192 196 205 220 227 236 242 245 250 255 257 261 264 266 267 277 281 283 299 312 315
b 104 18 29 30 37 40 48 58 62 66 69 72 74 76 81 85 103 114 116 130 139 153 169 171 175 176 178 182 186 192 196 205 220 227 236 242 250 255 257 261 264 266 267 277 281 283 299 312 315
b 105 29 40 48 56 69 76 85 103 114 140 146 171 172 175 192 196 197 200 202 205 206 227 242 244 261 266 267 271 275 288 299
b 106 29 40 48 56 69 76 85 103 114 140 171 175 192 194 196 197 200 205 227 242 260 261 266 267 275 288 299
b 107 40 53 56 69 76 103 114 140 171 175 192 194 196 197 200 205 227 233 242 260 261 275 288 292 299
b 108 27 40 53 56 69 76 103 114 140 171 175 192 196 197 200 205 227 233 242 260 261 275 288 292 299
b 109 21 24 26 37 40 43 69 73 76 86 103 114 140 165 171 175 192 196 198 205 214 226 227 238 242 250 252 261 267 268 277 297 299 309
b 110 6 7 12 13 14 19 21 24 29 32 37 41 42 43 46 47 48 51 54 63 80 85 86 87 94 101 105 106 109 134 135 141 149 150 167 186 187 188 198 201 204 206 209 217 225 226 238 244 250 252 253 263 266 267 268 271 273 276 285 295 297 309 310 313 318 319
b 111 6 7 12 13 14 19 21 24 29 32 37 41 42 43 46 47 48 51 54 63 80 85 86 87 94 101 105 106 109 134 135 141 149 150 167 186 187 188 198 201 204 206 209 211 217 225 226 238 244 250 252 253 263 266 267 268 271 276 285 295 297 309 310 313 318 319
b 112 6 7 12 13 14 19 21 24 29 32 41 42 43 46 47 48 51 54 63 80 85 86 87 94 101 105 106 109 134 135 141 149 150 167 186 187 188 198 201 204 206 209 211 217 225 226 238 241 244 250 252 253 263 266 267 268 271 276 285 295 297 309 310 313 318 319
b 113 6 7 12 14 19 21 24 29 32 41 42 43 46 47 48 49 51 54 63 80 85 86 87 94 101 105 106 109 134 135 141 149 150 167 186 187 188 198 201 204 206 209 211 217 225 226 238 241 244 250 252 253 263 266 267 268 271 276 285 295 297 309 310 313 318 319
b 114 6 7 14 21 24 29 32 41 42 43 46 47 48 49 51 54 63 80 85 86 87 94 101 105 106 109 134 135 141 149 150 167 187 188 201 209 211 217 225 235 241 250 252 253 263 266 267 276 295 297 310 313 318 319
b 115 6 7 14 21 29 32 34 42 43 46 47 48 49 51 54 80 85 87 94 101 105 106 109 134 135 141 149 150 167 187 188 201 209 211 217 225 235 241 250 253 263 266 267 276 295 310 313 318 319
b 116 6 7 14 21 29 32 34 42 43 46 47 48 49 51 54 80 85 87 94 97 101 106 109 134 135 141 149 150 167 187 188 201 209 211 217 225 235 241 250 253 263 266 267 276 295 310 313 318 319
b 117 6 7 14 21 29 32 34 42 43 46 47 48 49 51 54 80 85 87 94 97 101 109 135 141 149 150 167 187 188 201 209 211 216 217 222 225 235 241 250 253 263 266 267 276 295 310 313 318 319
b 118 6 7 14 21 29 32 34 42 43 46 47 48 49 51 54 80 85 87 94 96 97 101 109 135 141 149 150 167 187 188 201 209 211 216 217 222 225 235 241 250 253 263 266 267 276 295 313 318 319
b 119 6 7 14 21 29 32 34 42 43 46 47 48 49 51 54 80 85 87 94 96 97 101 109 135 141 149 150 167 187 188 201 209 211 216 217 222 225 235 250 253 266 267 276 295 303 313 318 319
b 120 6 7 14 21 29 32 34 42 43 46 47 48 49 51 54 80 85 87 94 96 97 101 109 135 141 149 150 167 187 188 201 208 209 216 217 222 225 235 250 266 267 276 295 303 313 318 319
b 121 7 29 32 34 42 46 48 51 54 85 87 97 109 187 201 208 219 225 235 250 259 266 267 276 303 305 318
b 122 7 29 32 42 46 48 51 54 85 87 97 109 142 201 208 219 225 235 250 259 266 267 276 303 305 318
1 2
1 23
2 3
3 4
4 5
5 6
6 7
7 8
8 9
9 10
10 11
11 12
11 18
12 13
13 14
14 15
15 16
16 17
18 63
18 19
19 20
20 21
21 22
23 24
24 25
25 26
26 27
27 28
28 29
29 30
30 31
31 32
32 33
33 34
34 35
35 36
35 62
36 37
37 38
38 39
39 40
40 41
40 45
41 42
42 43
43 44
45 46
46 47
47 48
48 49
49 50
50 51
51 52
52 53
53 54
54 55
55 56
56 57
57 58
58 59
59 60
60 61
63 64
63 110
64 65
64 70
65 66
66 67
67 68
68 69
70 71
71 72
72 73
73 74
74 75
75 76
76 77
77 78
78 79
79 80
80 81
81 82
82 83
82 109
83 84
84 85
85 86
86 87
87 88
87 105
88 89
89 90
90 91
91 92
92 93
93 94
94 95
95 96
96 97
97 98
98 99
99 100
100 101
101 102
102 103
103 104
105 106
106 107
107 108
110 111
111 112
112 113
113 114
114 115
115 116
116 117
117 118
118 119
119 120
120 121
121 122
